NAME : mcpfd.-16931.tour
COMMENT : Length = -16931
COMMENT : Found by LKH [Keld Helsgaun] Thu Sep 19 22:36:32 2024
TYPE : TOUR
DIMENSION : 40
TOUR_SECTION
1
31
8
24
23
25
39
3
33
6
21
22
36
10
29
30
28
27
40
2
12
11
13
14
32
4
17
18
16
15
34
5
19
20
35
7
37
9
26
38
-1
EOF
